; Copyright (c) 2026 The RIINA Authors. All rights reserved.
; Auto-generated from 02_FORMAL/coq/properties/check_ax.v (0 validations)
; Generated by scripts/generate-full-stack.py
;
; Translation Validation for check_ax
; Layer 9: Verifies compiler backend preserves formal semantics.
; Each assertion checks source IR ≡ target code for a proven property.

(set-logic QF_LIA)
(set-option :produce-models true)

; IR node representation
(declare-sort IRNode 0)
(declare-sort TargetNode 0)

; Verify all translation validations are satisfiable
(check-sat)
(exit)
